50

100 11 332
100 17 507
96 26 407
94 16 463
90 5 326
88 1 422
87 7 386
85 7 379
83 19 462
81 18 587
80 11 339
80 2 328
77 12 231
74 18 234
65 9 544
62 1 579
62 11 453
62 3 194
61 2 576
59 13 467
59 5 562
57 15 322
54 3 361
51 4 423
45 12 220
45 13 205
40 4 309
38 2 177
37 1 319
37 11 567
37 4 367
36 9 506
29 5 213
29 7 202
27 5 428
26 4 300
22 7 558
22 4 251
21 4 390
17 3 266
14 1 265
14 3 525
8 1 583
7 1 499
6 2 479
5 1 461
5 1 202
3 1 85
3 1 279
1 1 298
